language ESSENCE' 1.0
letting values be [[2, 0, 4, 3, 1, 0, 0, 6, 8], [6, 1, 0, 4, 8, 0, 0, 9, 3], [0, 3, 9, 5, 2, 6, 1, 4, 0], [4, 5, 0, 0, 7, 0, 6, 0, 0], [3, 0, 6, 9, 0, 8, 0, 1, 5], [7, 0, 8, 0, 0, 0, 4, 0, 2], [5, 4, 0, 8, 0, 1, 9, 0, 0], [1, 6, 3, 0, 0, 0, 8, 5, 4], [9, 8, 7, 6, 5, 0, 3, 0, 1]]